% Data example Kakuro
% Example 1

% whites = 14;
% size = 10;
% large = 5;

% pro = [|1, 2, 3, 0, 0|
%         4, 5, 6, 0, 0|
%         7, 8, 0, 0, 0|
%         9, 10, 11, 0, 0|
%         12, 13, 14, 0, 0|
%         1, 4, 7, 0, 0|
%         2, 5, 8, 9, 12|
%         3, 6, 0, 0, 0|
%         10, 13, 0, 0, 0|
%         11, 14, 0, 0, 0|];
        
% res = [9, 13, 13, 7, 19, 9, 34, 4, 11, 3];

% Example 2

% whites = 24;
% size = 20;
% large = 3;

% pro = [|1,2,0|
%         3,4,5|
%         6,7,8|
%         9,10,0|
%         11,12,0|
%         13,14,0|
%         15,16,0|
%         17,18,19|
%         20,21,22|
%         23,24,0|
%         6,11,0|
%         7,12,15|
%         1,3,8|
%         16,20,0|
%         2,4,0|
%         21,23,0|
%         5,9,0|
%         17,22,24|
%         10,13,18|
%         14,19,0|];
        
% res = [9,24,7,12,12,10,14,9,22,11, 7,20,10,14,15,17,13,8,23,3];

%Example 3

whites = 32;
size = 23;
large = 7;

pro = [|1,2,0,0,0,0,0|
        3,4,0,0,0,0,0|
        5,6,7,8,9,10,11|
        12,13,14,0,0,0,0|
        15,16,0,0,0,0,0|
        17,18,0,0,0,0,0|
        19,20,21,0,0,0,0|
        22,23,24,25,26,27,28|
        29,30,0,0,0,0,0|
        31,32,0,0,0,0,0|
        1,5,0,0,0,0,0|
        22,29,0,0,0,0,0|
        2,6,0,0,0,0,0|
        23,30,0,0,0,0,0|
        7,12,15,0,0,0,0|
        19,24,0,0,0,0,0|
        8,13,16,17,20,25,0|
        9,14,0,0,0,0,0|
        18,21,26,0,0,0,0|
        3,10,0,0,0,0,0|
        27,31,0,0,0,0,0|
        4,11,0,0,0,0,0|
        28,32,0,0,0,0,0|];
        
res = [8,12,36,11,10,8,6,28,4,14, 13,4,12,3,8,10,22,14,11,5,14,13,8];